%SETS
JOBS = 1..20;
MACHINES = 1..5;
SPEED    = 1;

time = array3d(JOBS,MACHINES,1..SPEED,[6, 3, 14, 21, 3, 9, 4, 5, 16, 1, 1, 1, 11, 9, 12, 24, 10, 3, 9, 1, 6, 1, 18, 4, 3, 1, 9, 3, 5, 1, 6, 6, 6, 18, 7, 2, 3, 7, 1, 6, 7, 1, 1, 2, 2, 5, 3, 28, 1, 1, 1, 6, 1, 3, 1, 1, 1, 6, 1, 1, 2, 10, 1, 11, 1, 23, 4, 23, 5, 8, 1, 2, 1, 2, 1, 2, 3, 1, 7, 5, 1, 4, 1, 5, 16, 2, 6, 1, 7, 2, 1, 5, 1, 11, 1, 7, 1, 8, 20, 1]);
energy = array3d(JOBS,MACHINES,1..SPEED,[94, 97, 86, 81, 97, 91, 96, 95, 85, 99, 99, 99, 89, 91, 88, 78, 90, 97, 91, 99, 94, 99, 83, 96, 97, 99, 91, 97, 95, 99, 94, 94, 94, 83, 93, 98, 97, 93, 99, 94, 93, 99, 99, 98, 98, 95, 97, 75, 99, 99, 99, 94, 99, 97, 99, 99, 99, 94, 99, 99, 98, 90, 99, 89, 99, 79, 96, 79, 95, 92, 99, 98, 99, 98, 99, 98, 97, 99, 93, 95, 99, 96, 99, 95, 85, 98, 94, 99, 93, 98, 99, 95, 99, 89, 99, 93, 99, 92, 81, 99]);
precedence = array2d(JOBS,MACHINES,[2, 3, 1, 4, 0, 4, 2, 0, 3, 1, 3, 2, 0, 1, 4, 3, 0, 1, 4, 2, 0, 3, 1, 4, 2, 1, 0, 3, 4, 2, 3, 4, 2, 1, 0, 4, 1, 3, 0, 2, 2, 4, 0, 3, 1, 1, 3, 4, 2, 0, 1, 4, 3, 2, 0, 4, 2, 0, 3, 1, 4, 0, 1, 2, 3, 2, 3, 4, 0, 1, 3, 0, 2, 1, 4, 4, 2, 1, 3, 0, 1, 2, 0, 4, 3, 1, 3, 4, 2, 0, 1, 4, 3, 0, 2, 4, 1, 3, 0, 2]);